SCIP version 5.0.0 [precision: 8 byte] [memory: block] [mode: optimized] [LP solver: NONE] [GitHash: 3bbd232]
Copyright (C) 2002-2017 Konrad-Zuse-Zentrum fuer Informationstechnik Berlin (ZIB)

External codes: 
  Readline EditLine w  GNU library for command line editing (gnu.org/s/readline)
  CppAD 20160000.1     Algorithmic Differentiation of C++ algorithms developed by B. Bell (www.coin-or.org/CppAD)
  ZLIB 1.2.5           General purpose compression library by J. Gailly and M. Adler (zlib.net)
  GMP 6.1.2            GNU Multiple Precision Arithmetic Library developed by T. Granlund (gmplib.org)

user parameter file <scip.set> not found - using default parameters

read problem <../../Split_data/output/statG/4/0_sample_statG.logreg>
============

File name	:	../../Split_data/output/statG/4/0_sample_statG.logreg
Problem name 	:	0_sample_statG
Number of data	:	800
Number of var	:	61
The given data has linear dependence
13 sets of column vector are linearly dependent:

[dim=1] time: 0.051611
[dim=2] time: 0.094392
[dim=3] time: 0.133886
[dim=4] time: 0.198263
[dim=5] time: 0.244907
[dim=6] time: 0.285737
[dim=7] time: 0.327185
[dim=8] time: 0.369147
[dim=9] time: 0.41753
[dim=10] time: 0.45766
[dim=11] time: 0.498265
[dim=12] time: 0.545922
[dim=13] time: 0.595282
[dim=14] time: 0.651493
[dim=15] time: 0.699622
[dim=16] time: 0.741135
[dim=17] time: 0.805834
[dim=18] time: 0.865913
[dim=19] time: 0.91698
[dim=20] time: 1.00103
[dim=21] time: 1.04851
[dim=22] time: 1.09667
[dim=23] time: 1.19562
[dim=24] Time of forward = 1.23961sec.
AIC: 794.564
k: 23

[dim=48] time: 0.191814
[dim=47] time: 0.332756
[dim=46] time: 0.483594
[dim=45] time: 0.594913
[dim=44] time: 0.751616
[dim=43] time: 0.849007
[dim=42] time: 0.978269
[dim=41] time: 1.09594
[dim=40] time: 1.1987
[dim=39] time: 1.27636
[dim=38] time: 1.37927
[dim=37] time: 1.467
[dim=36] time: 1.55733
[dim=35] time: 1.64701
[dim=34] time: 1.71255
[dim=33] time: 1.80482
[dim=32] time: 1.86857
[dim=31] time: 1.95675
[dim=30] time: 2.01377
[dim=29] time: 2.09877
[dim=28] time: 2.14708
[dim=27] time: 2.21461
[dim=26] Time of backward = 2.26667sec.
AIC: 799.279
k: 27
